certificates/rado_a14_c2_N207.cnf
c Rad2 upper bound instance: x1 + 14*x2 - x3 = 2, interval [1,207]
p cnf 207 2912
1 13 0
-1 -13 0
1 2 27 0
-1 -2 -27 0
1 3 41 0
-1 -3 -41 0
1 4 55 0
-1 -4 -55 0
1 5 69 0
-1 -5 -69 0
1 6 83 0
-1 -6 -83 0
1 7 97 0
-1 -7 -97 0
1 8 111 0
-1 -8 -111 0
1 9 125 0
-1 -9 -125 0
1 10 139 0
-1 -10 -139 0
1 11 153 0
-1 -11 -153 0
1 12 167 0
-1 -12 -167 0
1 13 181 0
-1 -13 -181 0
1 14 195 0
-1 -14 -195 0
1 2 14 0
-1 -2 -14 0
2 28 0
-2 -28 0
2 3 42 0
-2 -3 -42 0
2 4 56 0
-2 -4 -56 0
2 5 70 0
-2 -5 -70 0
2 6 84 0
-2 -6 -84 0
2 7 98 0
-2 -7 -98 0
2 8 112 0
-2 -8 -112 0
2 9 126 0
-2 -9 -126 0
2 10 140 0
-2 -10 -140 0
2 11 154 0
-2 -11 -154 0
2 12 168 0
-2 -12 -168 0
2 13 182 0
-2 -13 -182 0
2 14 196 0
-2 -14 -196 0
1 3 15 0
-1 -3 -15 0
2 3 29 0
-2 -3 -29 0
3 43 0
-3 -43 0
3 4 57 0
-3 -4 -57 0
3 5 71 0
-3 -5 -71 0
3 6 85 0
-3 -6 -85 0
3 7 99 0
-3 -7 -99 0
3 8 113 0
-3 -8 -113 0
3 9 127 0
-3 -9 -127 0
3 10 141 0
-3 -10 -141 0
3 11 155 0
-3 -11 -155 0
3 12 169 0
-3 -12 -169 0
3 13 183 0
-3 -13 -183 0
3 14 197 0
-3 -14 -197 0
1 4 16 0
-1 -4 -16 0
2 4 30 0
-2 -4 -30 0
3 4 44 0
-3 -4 -44 0
4 58 0
-4 -58 0
4 5 72 0
-4 -5 -72 0
4 6 86 0
-4 -6 -86 0
4 7 100 0
-4 -7 -100 0
4 8 114 0
-4 -8 -114 0
4 9 128 0
-4 -9 -128 0
4 10 142 0
-4 -10 -142 0
4 11 156 0
-4 -11 -156 0
4 12 170 0
-4 -12 -170 0
4 13 184 0
-4 -13 -184 0
4 14 198 0
-4 -14 -198 0
1 5 17 0
-1 -5 -17 0
2 5 31 0
-2 -5 -31 0
3 5 45 0
-3 -5 -45 0
4 5 59 0
-4 -5 -59 0
5 73 0
-5 -73 0
5 6 87 0
-5 -6 -87 0
5 7 101 0
-5 -7 -101 0
5 8 115 0
-5 -8 -115 0
5 9 129 0
-5 -9 -129 0
5 10 143 0
-5 -10 -143 0
5 11 157 0
-5 -11 -157 0
5 12 171 0
-5 -12 -171 0
5 13 185 0
-5 -13 -185 0
5 14 199 0
-5 -14 -199 0
1 6 18 0
-1 -6 -18 0
2 6 32 0
-2 -6 -32 0
3 6 46 0
-3 -6 -46 0
4 6 60 0
-4 -6 -60 0
5 6 74 0
-5 -6 -74 0
6 88 0
-6 -88 0
6 7 102 0
-6 -7 -102 0
6 8 116 0
-6 -8 -116 0
6 9 130 0
-6 -9 -130 0
6 10 144 0
-6 -10 -144 0
6 11 158 0
-6 -11 -158 0
6 12 172 0
-6 -12 -172 0
6 13 186 0
-6 -13 -186 0
6 14 200 0
-6 -14 -200 0
1 7 19 0
-1 -7 -19 0
2 7 33 0
-2 -7 -33 0
3 7 47 0
-3 -7 -47 0
4 7 61 0
-4 -7 -61 0
5 7 75 0
-5 -7 -75 0
6 7 89 0
-6 -7 -89 0
7 103 0
-7 -103 0
7 8 117 0
-7 -8 -117 0
7 9 131 0
-7 -9 -131 0
7 10 145 0
-7 -10 -145 0
7 11 159 0
-7 -11 -159 0
7 12 173 0
-7 -12 -173 0
7 13 187 0
-7 -13 -187 0
7 14 201 0
-7 -14 -201 0
1 8 20 0
-1 -8 -20 0
2 8 34 0
-2 -8 -34 0
3 8 48 0
-3 -8 -48 0
4 8 62 0
-4 -8 -62 0
5 8 76 0
-5 -8 -76 0
6 8 90 0
-6 -8 -90 0
7 8 104 0
-7 -8 -104 0
8 118 0
-8 -118 0
8 9 132 0
-8 -9 -132 0
8 10 146 0
-8 -10 -146 0
8 11 160 0
-8 -11 -160 0
8 12 174 0
-8 -12 -174 0
8 13 188 0
-8 -13 -188 0
8 14 202 0
-8 -14 -202 0
1 9 21 0
-1 -9 -21 0
2 9 35 0
-2 -9 -35 0
3 9 49 0
-3 -9 -49 0
4 9 63 0
-4 -9 -63 0
5 9 77 0
-5 -9 -77 0
6 9 91 0
-6 -9 -91 0
7 9 105 0
-7 -9 -105 0
8 9 119 0
-8 -9 -119 0
9 133 0
-9 -133 0
9 10 147 0
-9 -10 -147 0
9 11 161 0
-9 -11 -161 0
9 12 175 0
-9 -12 -175 0
9 13 189 0
-9 -13 -189 0
9 14 203 0
-9 -14 -203 0
1 10 22 0
-1 -10 -22 0
2 10 36 0
-2 -10 -36 0
3 10 50 0
-3 -10 -50 0
4 10 64 0
-4 -10 -64 0
5 10 78 0
-5 -10 -78 0
6 10 92 0
-6 -10 -92 0
7 10 106 0
-7 -10 -106 0
8 10 120 0
-8 -10 -120 0
9 10 134 0
-9 -10 -134 0
10 148 0
-10 -148 0
10 11 162 0
-10 -11 -162 0
10 12 176 0
-10 -12 -176 0
10 13 190 0
-10 -13 -190 0
10 14 204 0
-10 -14 -204 0
1 11 23 0
-1 -11 -23 0
2 11 37 0
-2 -11 -37 0
3 11 51 0
-3 -11 -51 0
4 11 65 0
-4 -11 -65 0
5 11 79 0
-5 -11 -79 0
6 11 93 0
-6 -11 -93 0
7 11 107 0
-7 -11 -107 0
8 11 121 0
-8 -11 -121 0
9 11 135 0
-9 -11 -135 0
10 11 149 0
-10 -11 -149 0
11 163 0
-11 -163 0
11 12 177 0
-11 -12 -177 0
11 13 191 0
-11 -13 -191 0
11 14 205 0
-11 -14 -205 0
1 12 24 0
-1 -12 -24 0
2 12 38 0
-2 -12 -38 0
3 12 52 0
-3 -12 -52 0
4 12 66 0
-4 -12 -66 0
5 12 80 0
-5 -12 -80 0
6 12 94 0
-6 -12 -94 0
7 12 108 0
-7 -12 -108 0
8 12 122 0
-8 -12 -122 0
9 12 136 0
-9 -12 -136 0
10 12 150 0
-10 -12 -150 0
11 12 164 0
-11 -12 -164 0
12 178 0
-12 -178 0
12 13 192 0
-12 -13 -192 0
12 14 206 0
-12 -14 -206 0
1 13 25 0
-1 -13 -25 0
2 13 39 0
-2 -13 -39 0
3 13 53 0
-3 -13 -53 0
4 13 67 0
-4 -13 -67 0
5 13 81 0
-5 -13 -81 0
6 13 95 0
-6 -13 -95 0
7 13 109 0
-7 -13 -109 0
8 13 123 0
-8 -13 -123 0
9 13 137 0
-9 -13 -137 0
10 13 151 0
-10 -13 -151 0
11 13 165 0
-11 -13 -165 0
12 13 179 0
-12 -13 -179 0
13 193 0
-13 -193 0
13 14 207 0
-13 -14 -207 0
1 14 26 0
-1 -14 -26 0
2 14 40 0
-2 -14 -40 0
3 14 54 0
-3 -14 -54 0
4 14 68 0
-4 -14 -68 0
5 14 82 0
-5 -14 -82 0
6 14 96 0
-6 -14 -96 0
7 14 110 0
-7 -14 -110 0
8 14 124 0
-8 -14 -124 0
9 14 138 0
-9 -14 -138 0
10 14 152 0
-10 -14 -152 0
11 14 166 0
-11 -14 -166 0
12 14 180 0
-12 -14 -180 0
13 14 194 0
-13 -14 -194 0
1 15 27 0
-1 -15 -27 0
2 15 41 0
-2 -15 -41 0
3 15 55 0
-3 -15 -55 0
4 15 69 0
-4 -15 -69 0
5 15 83 0
-5 -15 -83 0
6 15 97 0
-6 -15 -97 0
7 15 111 0
-7 -15 -111 0
8 15 125 0
-8 -15 -125 0
9 15 139 0
-9 -15 -139 0
10 15 153 0
-10 -15 -153 0
11 15 167 0
-11 -15 -167 0
12 15 181 0
-12 -15 -181 0
13 15 195 0
-13 -15 -195 0
1 16 28 0
-1 -16 -28 0
2 16 42 0
-2 -16 -42 0
3 16 56 0
-3 -16 -56 0
4 16 70 0
-4 -16 -70 0
5 16 84 0
-5 -16 -84 0
6 16 98 0
-6 -16 -98 0
7 16 112 0
-7 -16 -112 0
8 16 126 0
-8 -16 -126 0
9 16 140 0
-9 -16 -140 0
10 16 154 0
-10 -16 -154 0
11 16 168 0
-11 -16 -168 0
12 16 182 0
-12 -16 -182 0
13 16 196 0
-13 -16 -196 0
1 17 29 0
-1 -17 -29 0
2 17 43 0
-2 -17 -43 0
3 17 57 0
-3 -17 -57 0
4 17 71 0
-4 -17 -71 0
5 17 85 0
-5 -17 -85 0
6 17 99 0
-6 -17 -99 0
7 17 113 0
-7 -17 -113 0
8 17 127 0
-8 -17 -127 0
9 17 141 0
-9 -17 -141 0
10 17 155 0
-10 -17 -155 0
11 17 169 0
-11 -17 -169 0
12 17 183 0
-12 -17 -183 0
13 17 197 0
-13 -17 -197 0
1 18 30 0
-1 -18 -30 0
2 18 44 0
-2 -18 -44 0
3 18 58 0
-3 -18 -58 0
4 18 72 0
-4 -18 -72 0
5 18 86 0
-5 -18 -86 0
6 18 100 0
-6 -18 -100 0
7 18 114 0
-7 -18 -114 0
8 18 128 0
-8 -18 -128 0
9 18 142 0
-9 -18 -142 0
10 18 156 0
-10 -18 -156 0
11 18 170 0
-11 -18 -170 0
12 18 184 0
-12 -18 -184 0
13 18 198 0
-13 -18 -198 0
1 19 31 0
-1 -19 -31 0
2 19 45 0
-2 -19 -45 0
3 19 59 0
-3 -19 -59 0
4 19 73 0
-4 -19 -73 0
5 19 87 0
-5 -19 -87 0
6 19 101 0
-6 -19 -101 0
7 19 115 0
-7 -19 -115 0
8 19 129 0
-8 -19 -129 0
9 19 143 0
-9 -19 -143 0
10 19 157 0
-10 -19 -157 0
11 19 171 0
-11 -19 -171 0
12 19 185 0
-12 -19 -185 0
13 19 199 0
-13 -19 -199 0
1 20 32 0
-1 -20 -32 0
2 20 46 0
-2 -20 -46 0
3 20 60 0
-3 -20 -60 0
4 20 74 0
-4 -20 -74 0
5 20 88 0
-5 -20 -88 0
6 20 102 0
-6 -20 -102 0
7 20 116 0
-7 -20 -116 0
8 20 130 0
-8 -20 -130 0
9 20 144 0
-9 -20 -144 0
10 20 158 0
-10 -20 -158 0
11 20 172 0
-11 -20 -172 0
12 20 186 0
-12 -20 -186 0
13 20 200 0
-13 -20 -200 0
1 21 33 0
-1 -21 -33 0
2 21 47 0
-2 -21 -47 0
3 21 61 0
-3 -21 -61 0
4 21 75 0
-4 -21 -75 0
5 21 89 0
-5 -21 -89 0
6 21 103 0
-6 -21 -103 0
7 21 117 0
-7 -21 -117 0
8 21 131 0
-8 -21 -131 0
9 21 145 0
-9 -21 -145 0
10 21 159 0
-10 -21 -159 0
11 21 173 0
-11 -21 -173 0
12 21 187 0
-12 -21 -187 0
13 21 201 0
-13 -21 -201 0
1 22 34 0
-1 -22 -34 0
2 22 48 0
-2 -22 -48 0
3 22 62 0
-3 -22 -62 0
4 22 76 0
-4 -22 -76 0
5 22 90 0
-5 -22 -90 0
6 22 104 0
-6 -22 -104 0
7 22 118 0
-7 -22 -118 0
8 22 132 0
-8 -22 -132 0
9 22 146 0
-9 -22 -146 0
10 22 160 0
-10 -22 -160 0
11 22 174 0
-11 -22 -174 0
12 22 188 0
-12 -22 -188 0
13 22 202 0
-13 -22 -202 0
1 23 35 0
-1 -23 -35 0
2 23 49 0
-2 -23 -49 0
3 23 63 0
-3 -23 -63 0
4 23 77 0
-4 -23 -77 0
5 23 91 0
-5 -23 -91 0
6 23 105 0
-6 -23 -105 0
7 23 119 0
-7 -23 -119 0
8 23 133 0
-8 -23 -133 0
9 23 147 0
-9 -23 -147 0
10 23 161 0
-10 -23 -161 0
11 23 175 0
-11 -23 -175 0
12 23 189 0
-12 -23 -189 0
13 23 203 0
-13 -23 -203 0
1 24 36 0
-1 -24 -36 0
2 24 50 0
-2 -24 -50 0
3 24 64 0
-3 -24 -64 0
4 24 78 0
-4 -24 -78 0
5 24 92 0
-5 -24 -92 0
6 24 106 0
-6 -24 -106 0
7 24 120 0
-7 -24 -120 0
8 24 134 0
-8 -24 -134 0
9 24 148 0
-9 -24 -148 0
10 24 162 0
-10 -24 -162 0
11 24 176 0
-11 -24 -176 0
12 24 190 0
-12 -24 -190 0
13 24 204 0
-13 -24 -204 0
1 25 37 0
-1 -25 -37 0
2 25 51 0
-2 -25 -51 0
3 25 65 0
-3 -25 -65 0
4 25 79 0
-4 -25 -79 0
5 25 93 0
-5 -25 -93 0
6 25 107 0
-6 -25 -107 0
7 25 121 0
-7 -25 -121 0
8 25 135 0
-8 -25 -135 0
9 25 149 0
-9 -25 -149 0
10 25 163 0
-10 -25 -163 0
11 25 177 0
-11 -25 -177 0
12 25 191 0
-12 -25 -191 0
13 25 205 0
-13 -25 -205 0
1 26 38 0
-1 -26 -38 0
2 26 52 0
-2 -26 -52 0
3 26 66 0
-3 -26 -66 0
4 26 80 0
-4 -26 -80 0
5 26 94 0
-5 -26 -94 0
6 26 108 0
-6 -26 -108 0
7 26 122 0
-7 -26 -122 0
8 26 136 0
-8 -26 -136 0
9 26 150 0
-9 -26 -150 0
10 26 164 0
-10 -26 -164 0
11 26 178 0
-11 -26 -178 0
12 26 192 0
-12 -26 -192 0
13 26 206 0
-13 -26 -206 0
1 27 39 0
-1 -27 -39 0
2 27 53 0
-2 -27 -53 0
3 27 67 0
-3 -27 -67 0
4 27 81 0
-4 -27 -81 0
5 27 95 0
-5 -27 -95 0
6 27 109 0
-6 -27 -109 0
7 27 123 0
-7 -27 -123 0
8 27 137 0
-8 -27 -137 0
9 27 151 0
-9 -27 -151 0
10 27 165 0
-10 -27 -165 0
11 27 179 0
-11 -27 -179 0
12 27 193 0
-12 -27 -193 0
13 27 207 0
-13 -27 -207 0
1 28 40 0
-1 -28 -40 0
2 28 54 0
-2 -28 -54 0
3 28 68 0
-3 -28 -68 0
4 28 82 0
-4 -28 -82 0
5 28 96 0
-5 -28 -96 0
6 28 110 0
-6 -28 -110 0
7 28 124 0
-7 -28 -124 0
8 28 138 0
-8 -28 -138 0
9 28 152 0
-9 -28 -152 0
10 28 166 0
-10 -28 -166 0
11 28 180 0
-11 -28 -180 0
12 28 194 0
-12 -28 -194 0
1 29 41 0
-1 -29 -41 0
2 29 55 0
-2 -29 -55 0
3 29 69 0
-3 -29 -69 0
4 29 83 0
-4 -29 -83 0
5 29 97 0
-5 -29 -97 0
6 29 111 0
-6 -29 -111 0
7 29 125 0
-7 -29 -125 0
8 29 139 0
-8 -29 -139 0
9 29 153 0
-9 -29 -153 0
10 29 167 0
-10 -29 -167 0
11 29 181 0
-11 -29 -181 0
12 29 195 0
-12 -29 -195 0
1 30 42 0
-1 -30 -42 0
2 30 56 0
-2 -30 -56 0
3 30 70 0
-3 -30 -70 0
4 30 84 0
-4 -30 -84 0
5 30 98 0
-5 -30 -98 0
6 30 112 0
-6 -30 -112 0
7 30 126 0
-7 -30 -126 0
8 30 140 0
-8 -30 -140 0
9 30 154 0
-9 -30 -154 0
10 30 168 0
-10 -30 -168 0
11 30 182 0
-11 -30 -182 0
12 30 196 0
-12 -30 -196 0
1 31 43 0
-1 -31 -43 0
2 31 57 0
-2 -31 -57 0
3 31 71 0
-3 -31 -71 0
4 31 85 0
-4 -31 -85 0
5 31 99 0
-5 -31 -99 0
6 31 113 0
-6 -31 -113 0
7 31 127 0
-7 -31 -127 0
8 31 141 0
-8 -31 -141 0
9 31 155 0
-9 -31 -155 0
10 31 169 0
-10 -31 -169 0
11 31 183 0
-11 -31 -183 0
12 31 197 0
-12 -31 -197 0
1 32 44 0
-1 -32 -44 0
2 32 58 0
-2 -32 -58 0
3 32 72 0
-3 -32 -72 0
4 32 86 0
-4 -32 -86 0
5 32 100 0
-5 -32 -100 0
6 32 114 0
-6 -32 -114 0
7 32 128 0
-7 -32 -128 0
8 32 142 0
-8 -32 -142 0
9 32 156 0
-9 -32 -156 0
10 32 170 0
-10 -32 -170 0
11 32 184 0
-11 -32 -184 0
12 32 198 0
-12 -32 -198 0
1 33 45 0
-1 -33 -45 0
2 33 59 0
-2 -33 -59 0
3 33 73 0
-3 -33 -73 0
4 33 87 0
-4 -33 -87 0
5 33 101 0
-5 -33 -101 0
6 33 115 0
-6 -33 -115 0
7 33 129 0
-7 -33 -129 0
8 33 143 0
-8 -33 -143 0
9 33 157 0
-9 -33 -157 0
10 33 171 0
-10 -33 -171 0
11 33 185 0
-11 -33 -185 0
12 33 199 0
-12 -33 -199 0
1 34 46 0
-1 -34 -46 0
2 34 60 0
-2 -34 -60 0
3 34 74 0
-3 -34 -74 0
4 34 88 0
-4 -34 -88 0
5 34 102 0
-5 -34 -102 0
6 34 116 0
-6 -34 -116 0
7 34 130 0
-7 -34 -130 0
8 34 144 0
-8 -34 -144 0
9 34 158 0
-9 -34 -158 0
10 34 172 0
-10 -34 -172 0
11 34 186 0
-11 -34 -186 0
12 34 200 0
-12 -34 -200 0
1 35 47 0
-1 -35 -47 0
2 35 61 0
-2 -35 -61 0
3 35 75 0
-3 -35 -75 0
4 35 89 0
-4 -35 -89 0
5 35 103 0
-5 -35 -103 0
6 35 117 0
-6 -35 -117 0
7 35 131 0
-7 -35 -131 0
8 35 145 0
-8 -35 -145 0
9 35 159 0
-9 -35 -159 0
10 35 173 0
-10 -35 -173 0
11 35 187 0
-11 -35 -187 0
12 35 201 0
-12 -35 -201 0
1 36 48 0
-1 -36 -48 0
2 36 62 0
-2 -36 -62 0
3 36 76 0
-3 -36 -76 0
4 36 90 0
-4 -36 -90 0
5 36 104 0
-5 -36 -104 0
6 36 118 0
-6 -36 -118 0
7 36 132 0
-7 -36 -132 0
8 36 146 0
-8 -36 -146 0
9 36 160 0
-9 -36 -160 0
10 36 174 0
-10 -36 -174 0
11 36 188 0
-11 -36 -188 0
12 36 202 0
-12 -36 -202 0
1 37 49 0
-1 -37 -49 0
2 37 63 0
-2 -37 -63 0
3 37 77 0
-3 -37 -77 0
4 37 91 0
-4 -37 -91 0
5 37 105 0
-5 -37 -105 0
6 37 119 0
-6 -37 -119 0
7 37 133 0
-7 -37 -133 0
8 37 147 0
-8 -37 -147 0
9 37 161 0
-9 -37 -161 0
10 37 175 0
-10 -37 -175 0
11 37 189 0
-11 -37 -189 0
12 37 203 0
-12 -37 -203 0
1 38 50 0
-1 -38 -50 0
2 38 64 0
-2 -38 -64 0
3 38 78 0
-3 -38 -78 0
4 38 92 0
-4 -38 -92 0
5 38 106 0
-5 -38 -106 0
6 38 120 0
-6 -38 -120 0
7 38 134 0
-7 -38 -134 0
8 38 148 0
-8 -38 -148 0
9 38 162 0
-9 -38 -162 0
10 38 176 0
-10 -38 -176 0
11 38 190 0
-11 -38 -190 0
12 38 204 0
-12 -38 -204 0
1 39 51 0
-1 -39 -51 0
2 39 65 0
-2 -39 -65 0
3 39 79 0
-3 -39 -79 0
4 39 93 0
-4 -39 -93 0
5 39 107 0
-5 -39 -107 0
6 39 121 0
-6 -39 -121 0
7 39 135 0
-7 -39 -135 0
8 39 149 0
-8 -39 -149 0
9 39 163 0
-9 -39 -163 0
10 39 177 0
-10 -39 -177 0
11 39 191 0
-11 -39 -191 0
12 39 205 0
-12 -39 -205 0
1 40 52 0
-1 -40 -52 0
2 40 66 0
-2 -40 -66 0
3 40 80 0
-3 -40 -80 0
4 40 94 0
-4 -40 -94 0
5 40 108 0
-5 -40 -108 0
6 40 122 0
-6 -40 -122 0
7 40 136 0
-7 -40 -136 0
8 40 150 0
-8 -40 -150 0
9 40 164 0
-9 -40 -164 0
10 40 178 0
-10 -40 -178 0
11 40 192 0
-11 -40 -192 0
12 40 206 0
-12 -40 -206 0
1 41 53 0
-1 -41 -53 0
2 41 67 0
-2 -41 -67 0
3 41 81 0
-3 -41 -81 0
4 41 95 0
-4 -41 -95 0
5 41 109 0
-5 -41 -109 0
6 41 123 0
-6 -41 -123 0
7 41 137 0
-7 -41 -137 0
8 41 151 0
-8 -41 -151 0
9 41 165 0
-9 -41 -165 0
10 41 179 0
-10 -41 -179 0
11 41 193 0
-11 -41 -193 0
12 41 207 0
-12 -41 -207 0
1 42 54 0
-1 -42 -54 0
2 42 68 0
-2 -42 -68 0
3 42 82 0
-3 -42 -82 0
4 42 96 0
-4 -42 -96 0
5 42 110 0
-5 -42 -110 0
6 42 124 0
-6 -42 -124 0
7 42 138 0
-7 -42 -138 0
8 42 152 0
-8 -42 -152 0
9 42 166 0
-9 -42 -166 0
10 42 180 0
-10 -42 -180 0
11 42 194 0
-11 -42 -194 0
1 43 55 0
-1 -43 -55 0
2 43 69 0
-2 -43 -69 0
3 43 83 0
-3 -43 -83 0
4 43 97 0
-4 -43 -97 0
5 43 111 0
-5 -43 -111 0
6 43 125 0
-6 -43 -125 0
7 43 139 0
-7 -43 -139 0
8 43 153 0
-8 -43 -153 0
9 43 167 0
-9 -43 -167 0
10 43 181 0
-10 -43 -181 0
11 43 195 0
-11 -43 -195 0
1 44 56 0
-1 -44 -56 0
2 44 70 0
-2 -44 -70 0
3 44 84 0
-3 -44 -84 0
4 44 98 0
-4 -44 -98 0
5 44 112 0
-5 -44 -112 0
6 44 126 0
-6 -44 -126 0
7 44 140 0
-7 -44 -140 0
8 44 154 0
-8 -44 -154 0
9 44 168 0
-9 -44 -168 0
10 44 182 0
-10 -44 -182 0
11 44 196 0
-11 -44 -196 0
1 45 57 0
-1 -45 -57 0
2 45 71 0
-2 -45 -71 0
3 45 85 0
-3 -45 -85 0
4 45 99 0
-4 -45 -99 0
5 45 113 0
-5 -45 -113 0
6 45 127 0
-6 -45 -127 0
7 45 141 0
-7 -45 -141 0
8 45 155 0
-8 -45 -155 0
9 45 169 0
-9 -45 -169 0
10 45 183 0
-10 -45 -183 0
11 45 197 0
-11 -45 -197 0
1 46 58 0
-1 -46 -58 0
2 46 72 0
-2 -46 -72 0
3 46 86 0
-3 -46 -86 0
4 46 100 0
-4 -46 -100 0
5 46 114 0
-5 -46 -114 0
6 46 128 0
-6 -46 -128 0
7 46 142 0
-7 -46 -142 0
8 46 156 0
-8 -46 -156 0
9 46 170 0
-9 -46 -170 0
10 46 184 0
-10 -46 -184 0
11 46 198 0
-11 -46 -198 0
1 47 59 0
-1 -47 -59 0
2 47 73 0
-2 -47 -73 0
3 47 87 0
-3 -47 -87 0
4 47 101 0
-4 -47 -101 0
5 47 115 0
-5 -47 -115 0
6 47 129 0
-6 -47 -129 0
7 47 143 0
-7 -47 -143 0
8 47 157 0
-8 -47 -157 0
9 47 171 0
-9 -47 -171 0
10 47 185 0
-10 -47 -185 0
11 47 199 0
-11 -47 -199 0
1 48 60 0
-1 -48 -60 0
2 48 74 0
-2 -48 -74 0
3 48 88 0
-3 -48 -88 0
4 48 102 0
-4 -48 -102 0
5 48 116 0
-5 -48 -116 0
6 48 130 0
-6 -48 -130 0
7 48 144 0
-7 -48 -144 0
8 48 158 0
-8 -48 -158 0
9 48 172 0
-9 -48 -172 0
10 48 186 0
-10 -48 -186 0
11 48 200 0
-11 -48 -200 0
1 49 61 0
-1 -49 -61 0
2 49 75 0
-2 -49 -75 0
3 49 89 0
-3 -49 -89 0
4 49 103 0
-4 -49 -103 0
5 49 117 0
-5 -49 -117 0
6 49 131 0
-6 -49 -131 0
7 49 145 0
-7 -49 -145 0
8 49 159 0
-8 -49 -159 0
9 49 173 0
-9 -49 -173 0
10 49 187 0
-10 -49 -187 0
11 49 201 0
-11 -49 -201 0
1 50 62 0
-1 -50 -62 0
2 50 76 0
-2 -50 -76 0
3 50 90 0
-3 -50 -90 0
4 50 104 0
-4 -50 -104 0
5 50 118 0
-5 -50 -118 0
6 50 132 0
-6 -50 -132 0
7 50 146 0
-7 -50 -146 0
8 50 160 0
-8 -50 -160 0
9 50 174 0
-9 -50 -174 0
10 50 188 0
-10 -50 -188 0
11 50 202 0
-11 -50 -202 0
1 51 63 0
-1 -51 -63 0
2 51 77 0
-2 -51 -77 0
3 51 91 0
-3 -51 -91 0
4 51 105 0
-4 -51 -105 0
5 51 119 0
-5 -51 -119 0
6 51 133 0
-6 -51 -133 0
7 51 147 0
-7 -51 -147 0
8 51 161 0
-8 -51 -161 0
9 51 175 0
-9 -51 -175 0
10 51 189 0
-10 -51 -189 0
11 51 203 0
-11 -51 -203 0
1 52 64 0
-1 -52 -64 0
2 52 78 0
-2 -52 -78 0
3 52 92 0
-3 -52 -92 0
4 52 106 0
-4 -52 -106 0
5 52 120 0
-5 -52 -120 0
6 52 134 0
-6 -52 -134 0
7 52 148 0
-7 -52 -148 0
8 52 162 0
-8 -52 -162 0
9 52 176 0
-9 -52 -176 0
10 52 190 0
-10 -52 -190 0
11 52 204 0
-11 -52 -204 0
1 53 65 0
-1 -53 -65 0
2 53 79 0
-2 -53 -79 0
3 53 93 0
-3 -53 -93 0
4 53 107 0
-4 -53 -107 0
5 53 121 0
-5 -53 -121 0
6 53 135 0
-6 -53 -135 0
7 53 149 0
-7 -53 -149 0
8 53 163 0
-8 -53 -163 0
9 53 177 0
-9 -53 -177 0
10 53 191 0
-10 -53 -191 0
11 53 205 0
-11 -53 -205 0
1 54 66 0
-1 -54 -66 0
2 54 80 0
-2 -54 -80 0
3 54 94 0
-3 -54 -94 0
4 54 108 0
-4 -54 -108 0
5 54 122 0
-5 -54 -122 0
6 54 136 0
-6 -54 -136 0
7 54 150 0
-7 -54 -150 0
8 54 164 0
-8 -54 -164 0
9 54 178 0
-9 -54 -178 0
10 54 192 0
-10 -54 -192 0
11 54 206 0
-11 -54 -206 0
1 55 67 0
-1 -55 -67 0
2 55 81 0
-2 -55 -81 0
3 55 95 0
-3 -55 -95 0
4 55 109 0
-4 -55 -109 0
5 55 123 0
-5 -55 -123 0
6 55 137 0
-6 -55 -137 0
7 55 151 0
-7 -55 -151 0
8 55 165 0
-8 -55 -165 0
9 55 179 0
-9 -55 -179 0
10 55 193 0
-10 -55 -193 0
11 55 207 0
-11 -55 -207 0
1 56 68 0
-1 -56 -68 0
2 56 82 0
-2 -56 -82 0
3 56 96 0
-3 -56 -96 0
4 56 110 0
-4 -56 -110 0
5 56 124 0
-5 -56 -124 0
6 56 138 0
-6 -56 -138 0
7 56 152 0
-7 -56 -152 0
8 56 166 0
-8 -56 -166 0
9 56 180 0
-9 -56 -180 0
10 56 194 0
-10 -56 -194 0
1 57 69 0
-1 -57 -69 0
2 57 83 0
-2 -57 -83 0
3 57 97 0
-3 -57 -97 0
4 57 111 0
-4 -57 -111 0
5 57 125 0
-5 -57 -125 0
6 57 139 0
-6 -57 -139 0
7 57 153 0
-7 -57 -153 0
8 57 167 0
-8 -57 -167 0
9 57 181 0
-9 -57 -181 0
10 57 195 0
-10 -57 -195 0
1 58 70 0
-1 -58 -70 0
2 58 84 0
-2 -58 -84 0
3 58 98 0
-3 -58 -98 0
4 58 112 0
-4 -58 -112 0
5 58 126 0
-5 -58 -126 0
6 58 140 0
-6 -58 -140 0
7 58 154 0
-7 -58 -154 0
8 58 168 0
-8 -58 -168 0
9 58 182 0
-9 -58 -182 0
10 58 196 0
-10 -58 -196 0
1 59 71 0
-1 -59 -71 0
2 59 85 0
-2 -59 -85 0
3 59 99 0
-3 -59 -99 0
4 59 113 0
-4 -59 -113 0
5 59 127 0
-5 -59 -127 0
6 59 141 0
-6 -59 -141 0
7 59 155 0
-7 -59 -155 0
8 59 169 0
-8 -59 -169 0
9 59 183 0
-9 -59 -183 0
10 59 197 0
-10 -59 -197 0
1 60 72 0
-1 -60 -72 0
2 60 86 0
-2 -60 -86 0
3 60 100 0
-3 -60 -100 0
4 60 114 0
-4 -60 -114 0
5 60 128 0
-5 -60 -128 0
6 60 142 0
-6 -60 -142 0
7 60 156 0
-7 -60 -156 0
8 60 170 0
-8 -60 -170 0
9 60 184 0
-9 -60 -184 0
10 60 198 0
-10 -60 -198 0
1 61 73 0
-1 -61 -73 0
2 61 87 0
-2 -61 -87 0
3 61 101 0
-3 -61 -101 0
4 61 115 0
-4 -61 -115 0
5 61 129 0
-5 -61 -129 0
6 61 143 0
-6 -61 -143 0
7 61 157 0
-7 -61 -157 0
8 61 171 0
-8 -61 -171 0
9 61 185 0
-9 -61 -185 0
10 61 199 0
-10 -61 -199 0
1 62 74 0
-1 -62 -74 0
2 62 88 0
-2 -62 -88 0
3 62 102 0
-3 -62 -102 0
4 62 116 0
-4 -62 -116 0
5 62 130 0
-5 -62 -130 0
6 62 144 0
-6 -62 -144 0
7 62 158 0
-7 -62 -158 0
8 62 172 0
-8 -62 -172 0
9 62 186 0
-9 -62 -186 0
10 62 200 0
-10 -62 -200 0
1 63 75 0
-1 -63 -75 0
2 63 89 0
-2 -63 -89 0
3 63 103 0
-3 -63 -103 0
4 63 117 0
-4 -63 -117 0
5 63 131 0
-5 -63 -131 0
6 63 145 0
-6 -63 -145 0
7 63 159 0
-7 -63 -159 0
8 63 173 0
-8 -63 -173 0
9 63 187 0
-9 -63 -187 0
10 63 201 0
-10 -63 -201 0
1 64 76 0
-1 -64 -76 0
2 64 90 0
-2 -64 -90 0
3 64 104 0
-3 -64 -104 0
4 64 118 0
-4 -64 -118 0
5 64 132 0
-5 -64 -132 0
6 64 146 0
-6 -64 -146 0
7 64 160 0
-7 -64 -160 0
8 64 174 0
-8 -64 -174 0
9 64 188 0
-9 -64 -188 0
10 64 202 0
-10 -64 -202 0
1 65 77 0
-1 -65 -77 0
2 65 91 0
-2 -65 -91 0
3 65 105 0
-3 -65 -105 0
4 65 119 0
-4 -65 -119 0
5 65 133 0
-5 -65 -133 0
6 65 147 0
-6 -65 -147 0
7 65 161 0
-7 -65 -161 0
8 65 175 0
-8 -65 -175 0
9 65 189 0
-9 -65 -189 0
10 65 203 0
-10 -65 -203 0
1 66 78 0
-1 -66 -78 0
2 66 92 0
-2 -66 -92 0
3 66 106 0
-3 -66 -106 0
4 66 120 0
-4 -66 -120 0
5 66 134 0
-5 -66 -134 0
6 66 148 0
-6 -66 -148 0
7 66 162 0
-7 -66 -162 0
8 66 176 0
-8 -66 -176 0
9 66 190 0
-9 -66 -190 0
10 66 204 0
-10 -66 -204 0
1 67 79 0
-1 -67 -79 0
2 67 93 0
-2 -67 -93 0
3 67 107 0
-3 -67 -107 0
4 67 121 0
-4 -67 -121 0
5 67 135 0
-5 -67 -135 0
6 67 149 0
-6 -67 -149 0
7 67 163 0
-7 -67 -163 0
8 67 177 0
-8 -67 -177 0
9 67 191 0
-9 -67 -191 0
10 67 205 0
-10 -67 -205 0
1 68 80 0
-1 -68 -80 0
2 68 94 0
-2 -68 -94 0
3 68 108 0
-3 -68 -108 0
4 68 122 0
-4 -68 -122 0
5 68 136 0
-5 -68 -136 0
6 68 150 0
-6 -68 -150 0
7 68 164 0
-7 -68 -164 0
8 68 178 0
-8 -68 -178 0
9 68 192 0
-9 -68 -192 0
10 68 206 0
-10 -68 -206 0
1 69 81 0
-1 -69 -81 0
2 69 95 0
-2 -69 -95 0
3 69 109 0
-3 -69 -109 0
4 69 123 0
-4 -69 -123 0
5 69 137 0
-5 -69 -137 0
6 69 151 0
-6 -69 -151 0
7 69 165 0
-7 -69 -165 0
8 69 179 0
-8 -69 -179 0
9 69 193 0
-9 -69 -193 0
10 69 207 0
-10 -69 -207 0
1 70 82 0
-1 -70 -82 0
2 70 96 0
-2 -70 -96 0
3 70 110 0
-3 -70 -110 0
4 70 124 0
-4 -70 -124 0
5 70 138 0
-5 -70 -138 0
6 70 152 0
-6 -70 -152 0
7 70 166 0
-7 -70 -166 0
8 70 180 0
-8 -70 -180 0
9 70 194 0
-9 -70 -194 0
1 71 83 0
-1 -71 -83 0
2 71 97 0
-2 -71 -97 0
3 71 111 0
-3 -71 -111 0
4 71 125 0
-4 -71 -125 0
5 71 139 0
-5 -71 -139 0
6 71 153 0
-6 -71 -153 0
7 71 167 0
-7 -71 -167 0
8 71 181 0
-8 -71 -181 0
9 71 195 0
-9 -71 -195 0
1 72 84 0
-1 -72 -84 0
2 72 98 0
-2 -72 -98 0
3 72 112 0
-3 -72 -112 0
4 72 126 0
-4 -72 -126 0
5 72 140 0
-5 -72 -140 0
6 72 154 0
-6 -72 -154 0
7 72 168 0
-7 -72 -168 0
8 72 182 0
-8 -72 -182 0
9 72 196 0
-9 -72 -196 0
1 73 85 0
-1 -73 -85 0
2 73 99 0
-2 -73 -99 0
3 73 113 0
-3 -73 -113 0
4 73 127 0
-4 -73 -127 0
5 73 141 0
-5 -73 -141 0
6 73 155 0
-6 -73 -155 0
7 73 169 0
-7 -73 -169 0
8 73 183 0
-8 -73 -183 0
9 73 197 0
-9 -73 -197 0
1 74 86 0
-1 -74 -86 0
2 74 100 0
-2 -74 -100 0
3 74 114 0
-3 -74 -114 0
4 74 128 0
-4 -74 -128 0
5 74 142 0
-5 -74 -142 0
6 74 156 0
-6 -74 -156 0
7 74 170 0
-7 -74 -170 0
8 74 184 0
-8 -74 -184 0
9 74 198 0
-9 -74 -198 0
1 75 87 0
-1 -75 -87 0
2 75 101 0
-2 -75 -101 0
3 75 115 0
-3 -75 -115 0
4 75 129 0
-4 -75 -129 0
5 75 143 0
-5 -75 -143 0
6 75 157 0
-6 -75 -157 0
7 75 171 0
-7 -75 -171 0
8 75 185 0
-8 -75 -185 0
9 75 199 0
-9 -75 -199 0
1 76 88 0
-1 -76 -88 0
2 76 102 0
-2 -76 -102 0
3 76 116 0
-3 -76 -116 0
4 76 130 0
-4 -76 -130 0
5 76 144 0
-5 -76 -144 0
6 76 158 0
-6 -76 -158 0
7 76 172 0
-7 -76 -172 0
8 76 186 0
-8 -76 -186 0
9 76 200 0
-9 -76 -200 0
1 77 89 0
-1 -77 -89 0
2 77 103 0
-2 -77 -103 0
3 77 117 0
-3 -77 -117 0
4 77 131 0
-4 -77 -131 0
5 77 145 0
-5 -77 -145 0
6 77 159 0
-6 -77 -159 0
7 77 173 0
-7 -77 -173 0
8 77 187 0
-8 -77 -187 0
9 77 201 0
-9 -77 -201 0
1 78 90 0
-1 -78 -90 0
2 78 104 0
-2 -78 -104 0
3 78 118 0
-3 -78 -118 0
4 78 132 0
-4 -78 -132 0
5 78 146 0
-5 -78 -146 0
6 78 160 0
-6 -78 -160 0
7 78 174 0
-7 -78 -174 0
8 78 188 0
-8 -78 -188 0
9 78 202 0
-9 -78 -202 0
1 79 91 0
-1 -79 -91 0
2 79 105 0
-2 -79 -105 0
3 79 119 0
-3 -79 -119 0
4 79 133 0
-4 -79 -133 0
5 79 147 0
-5 -79 -147 0
6 79 161 0
-6 -79 -161 0
7 79 175 0
-7 -79 -175 0
8 79 189 0
-8 -79 -189 0
9 79 203 0
-9 -79 -203 0
1 80 92 0
-1 -80 -92 0
2 80 106 0
-2 -80 -106 0
3 80 120 0
-3 -80 -120 0
4 80 134 0
-4 -80 -134 0
5 80 148 0
-5 -80 -148 0
6 80 162 0
-6 -80 -162 0
7 80 176 0
-7 -80 -176 0
8 80 190 0
-8 -80 -190 0
9 80 204 0
-9 -80 -204 0
1 81 93 0
-1 -81 -93 0
2 81 107 0
-2 -81 -107 0
3 81 121 0
-3 -81 -121 0
4 81 135 0
-4 -81 -135 0
5 81 149 0
-5 -81 -149 0
6 81 163 0
-6 -81 -163 0
7 81 177 0
-7 -81 -177 0
8 81 191 0
-8 -81 -191 0
9 81 205 0
-9 -81 -205 0
1 82 94 0
-1 -82 -94 0
2 82 108 0
-2 -82 -108 0
3 82 122 0
-3 -82 -122 0
4 82 136 0
-4 -82 -136 0
5 82 150 0
-5 -82 -150 0
6 82 164 0
-6 -82 -164 0
7 82 178 0
-7 -82 -178 0
8 82 192 0
-8 -82 -192 0
9 82 206 0
-9 -82 -206 0
1 83 95 0
-1 -83 -95 0
2 83 109 0
-2 -83 -109 0
3 83 123 0
-3 -83 -123 0
4 83 137 0
-4 -83 -137 0
5 83 151 0
-5 -83 -151 0
6 83 165 0
-6 -83 -165 0
7 83 179 0
-7 -83 -179 0
8 83 193 0
-8 -83 -193 0
9 83 207 0
-9 -83 -207 0
1 84 96 0
-1 -84 -96 0
2 84 110 0
-2 -84 -110 0
3 84 124 0
-3 -84 -124 0
4 84 138 0
-4 -84 -138 0
5 84 152 0
-5 -84 -152 0
6 84 166 0
-6 -84 -166 0
7 84 180 0
-7 -84 -180 0
8 84 194 0
-8 -84 -194 0
1 85 97 0
-1 -85 -97 0
2 85 111 0
-2 -85 -111 0
3 85 125 0
-3 -85 -125 0
4 85 139 0
-4 -85 -139 0
5 85 153 0
-5 -85 -153 0
6 85 167 0
-6 -85 -167 0
7 85 181 0
-7 -85 -181 0
8 85 195 0
-8 -85 -195 0
1 86 98 0
-1 -86 -98 0
2 86 112 0
-2 -86 -112 0
3 86 126 0
-3 -86 -126 0
4 86 140 0
-4 -86 -140 0
5 86 154 0
-5 -86 -154 0
6 86 168 0
-6 -86 -168 0
7 86 182 0
-7 -86 -182 0
8 86 196 0
-8 -86 -196 0
1 87 99 0
-1 -87 -99 0
2 87 113 0
-2 -87 -113 0
3 87 127 0
-3 -87 -127 0
4 87 141 0
-4 -87 -141 0
5 87 155 0
-5 -87 -155 0
6 87 169 0
-6 -87 -169 0
7 87 183 0
-7 -87 -183 0
8 87 197 0
-8 -87 -197 0
1 88 100 0
-1 -88 -100 0
2 88 114 0
-2 -88 -114 0
3 88 128 0
-3 -88 -128 0
4 88 142 0
-4 -88 -142 0
5 88 156 0
-5 -88 -156 0
6 88 170 0
-6 -88 -170 0
7 88 184 0
-7 -88 -184 0
8 88 198 0
-8 -88 -198 0
1 89 101 0
-1 -89 -101 0
2 89 115 0
-2 -89 -115 0
3 89 129 0
-3 -89 -129 0
4 89 143 0
-4 -89 -143 0
5 89 157 0
-5 -89 -157 0
6 89 171 0
-6 -89 -171 0
7 89 185 0
-7 -89 -185 0
8 89 199 0
-8 -89 -199 0
1 90 102 0
-1 -90 -102 0
2 90 116 0
-2 -90 -116 0
3 90 130 0
-3 -90 -130 0
4 90 144 0
-4 -90 -144 0
5 90 158 0
-5 -90 -158 0
6 90 172 0
-6 -90 -172 0
7 90 186 0
-7 -90 -186 0
8 90 200 0
-8 -90 -200 0
1 91 103 0
-1 -91 -103 0
2 91 117 0
-2 -91 -117 0
3 91 131 0
-3 -91 -131 0
4 91 145 0
-4 -91 -145 0
5 91 159 0
-5 -91 -159 0
6 91 173 0
-6 -91 -173 0
7 91 187 0
-7 -91 -187 0
8 91 201 0
-8 -91 -201 0
1 92 104 0
-1 -92 -104 0
2 92 118 0
-2 -92 -118 0
3 92 132 0
-3 -92 -132 0
4 92 146 0
-4 -92 -146 0
5 92 160 0
-5 -92 -160 0
6 92 174 0
-6 -92 -174 0
7 92 188 0
-7 -92 -188 0
8 92 202 0
-8 -92 -202 0
1 93 105 0
-1 -93 -105 0
2 93 119 0
-2 -93 -119 0
3 93 133 0
-3 -93 -133 0
4 93 147 0
-4 -93 -147 0
5 93 161 0
-5 -93 -161 0
6 93 175 0
-6 -93 -175 0
7 93 189 0
-7 -93 -189 0
8 93 203 0
-8 -93 -203 0
1 94 106 0
-1 -94 -106 0
2 94 120 0
-2 -94 -120 0
3 94 134 0
-3 -94 -134 0
4 94 148 0
-4 -94 -148 0
5 94 162 0
-5 -94 -162 0
6 94 176 0
-6 -94 -176 0
7 94 190 0
-7 -94 -190 0
8 94 204 0
-8 -94 -204 0
1 95 107 0
-1 -95 -107 0
2 95 121 0
-2 -95 -121 0
3 95 135 0
-3 -95 -135 0
4 95 149 0
-4 -95 -149 0
5 95 163 0
-5 -95 -163 0
6 95 177 0
-6 -95 -177 0
7 95 191 0
-7 -95 -191 0
8 95 205 0
-8 -95 -205 0
1 96 108 0
-1 -96 -108 0
2 96 122 0
-2 -96 -122 0
3 96 136 0
-3 -96 -136 0
4 96 150 0
-4 -96 -150 0
5 96 164 0
-5 -96 -164 0
6 96 178 0
-6 -96 -178 0
7 96 192 0
-7 -96 -192 0
8 96 206 0
-8 -96 -206 0
1 97 109 0
-1 -97 -109 0
2 97 123 0
-2 -97 -123 0
3 97 137 0
-3 -97 -137 0
4 97 151 0
-4 -97 -151 0
5 97 165 0
-5 -97 -165 0
6 97 179 0
-6 -97 -179 0
7 97 193 0
-7 -97 -193 0
8 97 207 0
-8 -97 -207 0
1 98 110 0
-1 -98 -110 0
2 98 124 0
-2 -98 -124 0
3 98 138 0
-3 -98 -138 0
4 98 152 0
-4 -98 -152 0
5 98 166 0
-5 -98 -166 0
6 98 180 0
-6 -98 -180 0
7 98 194 0
-7 -98 -194 0
1 99 111 0
-1 -99 -111 0
2 99 125 0
-2 -99 -125 0
3 99 139 0
-3 -99 -139 0
4 99 153 0
-4 -99 -153 0
5 99 167 0
-5 -99 -167 0
6 99 181 0
-6 -99 -181 0
7 99 195 0
-7 -99 -195 0
1 100 112 0
-1 -100 -112 0
2 100 126 0
-2 -100 -126 0
3 100 140 0
-3 -100 -140 0
4 100 154 0
-4 -100 -154 0
5 100 168 0
-5 -100 -168 0
6 100 182 0
-6 -100 -182 0
7 100 196 0
-7 -100 -196 0
1 101 113 0
-1 -101 -113 0
2 101 127 0
-2 -101 -127 0
3 101 141 0
-3 -101 -141 0
4 101 155 0
-4 -101 -155 0
5 101 169 0
-5 -101 -169 0
6 101 183 0
-6 -101 -183 0
7 101 197 0
-7 -101 -197 0
1 102 114 0
-1 -102 -114 0
2 102 128 0
-2 -102 -128 0
3 102 142 0
-3 -102 -142 0
4 102 156 0
-4 -102 -156 0
5 102 170 0
-5 -102 -170 0
6 102 184 0
-6 -102 -184 0
7 102 198 0
-7 -102 -198 0
1 103 115 0
-1 -103 -115 0
2 103 129 0
-2 -103 -129 0
3 103 143 0
-3 -103 -143 0
4 103 157 0
-4 -103 -157 0
5 103 171 0
-5 -103 -171 0
6 103 185 0
-6 -103 -185 0
7 103 199 0
-7 -103 -199 0
1 104 116 0
-1 -104 -116 0
2 104 130 0
-2 -104 -130 0
3 104 144 0
-3 -104 -144 0
4 104 158 0
-4 -104 -158 0
5 104 172 0
-5 -104 -172 0
6 104 186 0
-6 -104 -186 0
7 104 200 0
-7 -104 -200 0
1 105 117 0
-1 -105 -117 0
2 105 131 0
-2 -105 -131 0
3 105 145 0
-3 -105 -145 0
4 105 159 0
-4 -105 -159 0
5 105 173 0
-5 -105 -173 0
6 105 187 0
-6 -105 -187 0
7 105 201 0
-7 -105 -201 0
1 106 118 0
-1 -106 -118 0
2 106 132 0
-2 -106 -132 0
3 106 146 0
-3 -106 -146 0
4 106 160 0
-4 -106 -160 0
5 106 174 0
-5 -106 -174 0
6 106 188 0
-6 -106 -188 0
7 106 202 0
-7 -106 -202 0
1 107 119 0
-1 -107 -119 0
2 107 133 0
-2 -107 -133 0
3 107 147 0
-3 -107 -147 0
4 107 161 0
-4 -107 -161 0
5 107 175 0
-5 -107 -175 0
6 107 189 0
-6 -107 -189 0
7 107 203 0
-7 -107 -203 0
1 108 120 0
-1 -108 -120 0
2 108 134 0
-2 -108 -134 0
3 108 148 0
-3 -108 -148 0
4 108 162 0
-4 -108 -162 0
5 108 176 0
-5 -108 -176 0
6 108 190 0
-6 -108 -190 0
7 108 204 0
-7 -108 -204 0
1 109 121 0
-1 -109 -121 0
2 109 135 0
-2 -109 -135 0
3 109 149 0
-3 -109 -149 0
4 109 163 0
-4 -109 -163 0
5 109 177 0
-5 -109 -177 0
6 109 191 0
-6 -109 -191 0
7 109 205 0
-7 -109 -205 0
1 110 122 0
-1 -110 -122 0
2 110 136 0
-2 -110 -136 0
3 110 150 0
-3 -110 -150 0
4 110 164 0
-4 -110 -164 0
5 110 178 0
-5 -110 -178 0
6 110 192 0
-6 -110 -192 0
7 110 206 0
-7 -110 -206 0
1 111 123 0
-1 -111 -123 0
2 111 137 0
-2 -111 -137 0
3 111 151 0
-3 -111 -151 0
4 111 165 0
-4 -111 -165 0
5 111 179 0
-5 -111 -179 0
6 111 193 0
-6 -111 -193 0
7 111 207 0
-7 -111 -207 0
1 112 124 0
-1 -112 -124 0
2 112 138 0
-2 -112 -138 0
3 112 152 0
-3 -112 -152 0
4 112 166 0
-4 -112 -166 0
5 112 180 0
-5 -112 -180 0
6 112 194 0
-6 -112 -194 0
1 113 125 0
-1 -113 -125 0
2 113 139 0
-2 -113 -139 0
3 113 153 0
-3 -113 -153 0
4 113 167 0
-4 -113 -167 0
5 113 181 0
-5 -113 -181 0
6 113 195 0
-6 -113 -195 0
1 114 126 0
-1 -114 -126 0
2 114 140 0
-2 -114 -140 0
3 114 154 0
-3 -114 -154 0
4 114 168 0
-4 -114 -168 0
5 114 182 0
-5 -114 -182 0
6 114 196 0
-6 -114 -196 0
1 115 127 0
-1 -115 -127 0
2 115 141 0
-2 -115 -141 0
3 115 155 0
-3 -115 -155 0
4 115 169 0
-4 -115 -169 0
5 115 183 0
-5 -115 -183 0
6 115 197 0
-6 -115 -197 0
1 116 128 0
-1 -116 -128 0
2 116 142 0
-2 -116 -142 0
3 116 156 0
-3 -116 -156 0
4 116 170 0
-4 -116 -170 0
5 116 184 0
-5 -116 -184 0
6 116 198 0
-6 -116 -198 0
1 117 129 0
-1 -117 -129 0
2 117 143 0
-2 -117 -143 0
3 117 157 0
-3 -117 -157 0
4 117 171 0
-4 -117 -171 0
5 117 185 0
-5 -117 -185 0
6 117 199 0
-6 -117 -199 0
1 118 130 0
-1 -118 -130 0
2 118 144 0
-2 -118 -144 0
3 118 158 0
-3 -118 -158 0
4 118 172 0
-4 -118 -172 0
5 118 186 0
-5 -118 -186 0
6 118 200 0
-6 -118 -200 0
1 119 131 0
-1 -119 -131 0
2 119 145 0
-2 -119 -145 0
3 119 159 0
-3 -119 -159 0
4 119 173 0
-4 -119 -173 0
5 119 187 0
-5 -119 -187 0
6 119 201 0
-6 -119 -201 0
1 120 132 0
-1 -120 -132 0
2 120 146 0
-2 -120 -146 0
3 120 160 0
-3 -120 -160 0
4 120 174 0
-4 -120 -174 0
5 120 188 0
-5 -120 -188 0
6 120 202 0
-6 -120 -202 0
1 121 133 0
-1 -121 -133 0
2 121 147 0
-2 -121 -147 0
3 121 161 0
-3 -121 -161 0
4 121 175 0
-4 -121 -175 0
5 121 189 0
-5 -121 -189 0
6 121 203 0
-6 -121 -203 0
1 122 134 0
-1 -122 -134 0
2 122 148 0
-2 -122 -148 0
3 122 162 0
-3 -122 -162 0
4 122 176 0
-4 -122 -176 0
5 122 190 0
-5 -122 -190 0
6 122 204 0
-6 -122 -204 0
1 123 135 0
-1 -123 -135 0
2 123 149 0
-2 -123 -149 0
3 123 163 0
-3 -123 -163 0
4 123 177 0
-4 -123 -177 0
5 123 191 0
-5 -123 -191 0
6 123 205 0
-6 -123 -205 0
1 124 136 0
-1 -124 -136 0
2 124 150 0
-2 -124 -150 0
3 124 164 0
-3 -124 -164 0
4 124 178 0
-4 -124 -178 0
5 124 192 0
-5 -124 -192 0
6 124 206 0
-6 -124 -206 0
1 125 137 0
-1 -125 -137 0
2 125 151 0
-2 -125 -151 0
3 125 165 0
-3 -125 -165 0
4 125 179 0
-4 -125 -179 0
5 125 193 0
-5 -125 -193 0
6 125 207 0
-6 -125 -207 0
1 126 138 0
-1 -126 -138 0
2 126 152 0
-2 -126 -152 0
3 126 166 0
-3 -126 -166 0
4 126 180 0
-4 -126 -180 0
5 126 194 0
-5 -126 -194 0
1 127 139 0
-1 -127 -139 0
2 127 153 0
-2 -127 -153 0
3 127 167 0
-3 -127 -167 0
4 127 181 0
-4 -127 -181 0
5 127 195 0
-5 -127 -195 0
1 128 140 0
-1 -128 -140 0
2 128 154 0
-2 -128 -154 0
3 128 168 0
-3 -128 -168 0
4 128 182 0
-4 -128 -182 0
5 128 196 0
-5 -128 -196 0
1 129 141 0
-1 -129 -141 0
2 129 155 0
-2 -129 -155 0
3 129 169 0
-3 -129 -169 0
4 129 183 0
-4 -129 -183 0
5 129 197 0
-5 -129 -197 0
1 130 142 0
-1 -130 -142 0
2 130 156 0
-2 -130 -156 0
3 130 170 0
-3 -130 -170 0
4 130 184 0
-4 -130 -184 0
5 130 198 0
-5 -130 -198 0
1 131 143 0
-1 -131 -143 0
2 131 157 0
-2 -131 -157 0
3 131 171 0
-3 -131 -171 0
4 131 185 0
-4 -131 -185 0
5 131 199 0
-5 -131 -199 0
1 132 144 0
-1 -132 -144 0
2 132 158 0
-2 -132 -158 0
3 132 172 0
-3 -132 -172 0
4 132 186 0
-4 -132 -186 0
5 132 200 0
-5 -132 -200 0
1 133 145 0
-1 -133 -145 0
2 133 159 0
-2 -133 -159 0
3 133 173 0
-3 -133 -173 0
4 133 187 0
-4 -133 -187 0
5 133 201 0
-5 -133 -201 0
1 134 146 0
-1 -134 -146 0
2 134 160 0
-2 -134 -160 0
3 134 174 0
-3 -134 -174 0
4 134 188 0
-4 -134 -188 0
5 134 202 0
-5 -134 -202 0
1 135 147 0
-1 -135 -147 0
2 135 161 0
-2 -135 -161 0
3 135 175 0
-3 -135 -175 0
4 135 189 0
-4 -135 -189 0
5 135 203 0
-5 -135 -203 0
1 136 148 0
-1 -136 -148 0
2 136 162 0
-2 -136 -162 0
3 136 176 0
-3 -136 -176 0
4 136 190 0
-4 -136 -190 0
5 136 204 0
-5 -136 -204 0
1 137 149 0
-1 -137 -149 0
2 137 163 0
-2 -137 -163 0
3 137 177 0
-3 -137 -177 0
4 137 191 0
-4 -137 -191 0
5 137 205 0
-5 -137 -205 0
1 138 150 0
-1 -138 -150 0
2 138 164 0
-2 -138 -164 0
3 138 178 0
-3 -138 -178 0
4 138 192 0
-4 -138 -192 0
5 138 206 0
-5 -138 -206 0
1 139 151 0
-1 -139 -151 0
2 139 165 0
-2 -139 -165 0
3 139 179 0
-3 -139 -179 0
4 139 193 0
-4 -139 -193 0
5 139 207 0
-5 -139 -207 0
1 140 152 0
-1 -140 -152 0
2 140 166 0
-2 -140 -166 0
3 140 180 0
-3 -140 -180 0
4 140 194 0
-4 -140 -194 0
1 141 153 0
-1 -141 -153 0
2 141 167 0
-2 -141 -167 0
3 141 181 0
-3 -141 -181 0
4 141 195 0
-4 -141 -195 0
1 142 154 0
-1 -142 -154 0
2 142 168 0
-2 -142 -168 0
3 142 182 0
-3 -142 -182 0
4 142 196 0
-4 -142 -196 0
1 143 155 0
-1 -143 -155 0
2 143 169 0
-2 -143 -169 0
3 143 183 0
-3 -143 -183 0
4 143 197 0
-4 -143 -197 0
1 144 156 0
-1 -144 -156 0
2 144 170 0
-2 -144 -170 0
3 144 184 0
-3 -144 -184 0
4 144 198 0
-4 -144 -198 0
1 145 157 0
-1 -145 -157 0
2 145 171 0
-2 -145 -171 0
3 145 185 0
-3 -145 -185 0
4 145 199 0
-4 -145 -199 0
1 146 158 0
-1 -146 -158 0
2 146 172 0
-2 -146 -172 0
3 146 186 0
-3 -146 -186 0
4 146 200 0
-4 -146 -200 0
1 147 159 0
-1 -147 -159 0
2 147 173 0
-2 -147 -173 0
3 147 187 0
-3 -147 -187 0
4 147 201 0
-4 -147 -201 0
1 148 160 0
-1 -148 -160 0
2 148 174 0
-2 -148 -174 0
3 148 188 0
-3 -148 -188 0
4 148 202 0
-4 -148 -202 0
1 149 161 0
-1 -149 -161 0
2 149 175 0
-2 -149 -175 0
3 149 189 0
-3 -149 -189 0
4 149 203 0
-4 -149 -203 0
1 150 162 0
-1 -150 -162 0
2 150 176 0
-2 -150 -176 0
3 150 190 0
-3 -150 -190 0
4 150 204 0
-4 -150 -204 0
1 151 163 0
-1 -151 -163 0
2 151 177 0
-2 -151 -177 0
3 151 191 0
-3 -151 -191 0
4 151 205 0
-4 -151 -205 0
1 152 164 0
-1 -152 -164 0
2 152 178 0
-2 -152 -178 0
3 152 192 0
-3 -152 -192 0
4 152 206 0
-4 -152 -206 0
1 153 165 0
-1 -153 -165 0
2 153 179 0
-2 -153 -179 0
3 153 193 0
-3 -153 -193 0
4 153 207 0
-4 -153 -207 0
1 154 166 0
-1 -154 -166 0
2 154 180 0
-2 -154 -180 0
3 154 194 0
-3 -154 -194 0
1 155 167 0
-1 -155 -167 0
2 155 181 0
-2 -155 -181 0
3 155 195 0
-3 -155 -195 0
1 156 168 0
-1 -156 -168 0
2 156 182 0
-2 -156 -182 0
3 156 196 0
-3 -156 -196 0
1 157 169 0
-1 -157 -169 0
2 157 183 0
-2 -157 -183 0
3 157 197 0
-3 -157 -197 0
1 158 170 0
-1 -158 -170 0
2 158 184 0
-2 -158 -184 0
3 158 198 0
-3 -158 -198 0
1 159 171 0
-1 -159 -171 0
2 159 185 0
-2 -159 -185 0
3 159 199 0
-3 -159 -199 0
1 160 172 0
-1 -160 -172 0
2 160 186 0
-2 -160 -186 0
3 160 200 0
-3 -160 -200 0
1 161 173 0
-1 -161 -173 0
2 161 187 0
-2 -161 -187 0
3 161 201 0
-3 -161 -201 0
1 162 174 0
-1 -162 -174 0
2 162 188 0
-2 -162 -188 0
3 162 202 0
-3 -162 -202 0
1 163 175 0
-1 -163 -175 0
2 163 189 0
-2 -163 -189 0
3 163 203 0
-3 -163 -203 0
1 164 176 0
-1 -164 -176 0
2 164 190 0
-2 -164 -190 0
3 164 204 0
-3 -164 -204 0
1 165 177 0
-1 -165 -177 0
2 165 191 0
-2 -165 -191 0
3 165 205 0
-3 -165 -205 0
1 166 178 0
-1 -166 -178 0
2 166 192 0
-2 -166 -192 0
3 166 206 0
-3 -166 -206 0
1 167 179 0
-1 -167 -179 0
2 167 193 0
-2 -167 -193 0
3 167 207 0
-3 -167 -207 0
1 168 180 0
-1 -168 -180 0
2 168 194 0
-2 -168 -194 0
1 169 181 0
-1 -169 -181 0
2 169 195 0
-2 -169 -195 0
1 170 182 0
-1 -170 -182 0
2 170 196 0
-2 -170 -196 0
1 171 183 0
-1 -171 -183 0
2 171 197 0
-2 -171 -197 0
1 172 184 0
-1 -172 -184 0
2 172 198 0
-2 -172 -198 0
1 173 185 0
-1 -173 -185 0
2 173 199 0
-2 -173 -199 0
1 174 186 0
-1 -174 -186 0
2 174 200 0
-2 -174 -200 0
1 175 187 0
-1 -175 -187 0
2 175 201 0
-2 -175 -201 0
1 176 188 0
-1 -176 -188 0
2 176 202 0
-2 -176 -202 0
1 177 189 0
-1 -177 -189 0
2 177 203 0
-2 -177 -203 0
1 178 190 0
-1 -178 -190 0
2 178 204 0
-2 -178 -204 0
1 179 191 0
-1 -179 -191 0
2 179 205 0
-2 -179 -205 0
1 180 192 0
-1 -180 -192 0
2 180 206 0
-2 -180 -206 0
1 181 193 0
-1 -181 -193 0
2 181 207 0
-2 -181 -207 0
1 182 194 0
-1 -182 -194 0
1 183 195 0
-1 -183 -195 0
1 184 196 0
-1 -184 -196 0
1 185 197 0
-1 -185 -197 0
1 186 198 0
-1 -186 -198 0
1 187 199 0
-1 -187 -199 0
1 188 200 0
-1 -188 -200 0
1 189 201 0
-1 -189 -201 0
1 190 202 0
-1 -190 -202 0
1 191 203 0
-1 -191 -203 0
1 192 204 0
-1 -192 -204 0
1 193 205 0
-1 -193 -205 0
1 194 206 0
-1 -194 -206 0
1 195 207 0
-1 -195 -207 0
