certificates/rado_a14_c2_N207.drat
1 -206 -207 0
-1 -207 0
-207 0
-13 -195 0
-195 0
1 0
-13 0
193 0
14 0
27 0
15 0
-205 0
-181 0
-26 0
-2 0
-39 0
-12 0
0
